50

99 23 329
96 19 503
95 43 405
95 23 464
92 26 331
91 4 427
90 27 391
86 22 381
86 2 466
86 34 587
85 39 350
80 7 328
77 29 231
77 4 243
76 22 548
76 3 582
71 15 462
70 29 218
70 12 577
69 1 477
68 8 564
64 13 335
64 7 378
61 20 435
60 11 257
60 18 243
56 5 339
55 3 221
53 24 346
52 25 570
50 23 386
48 21 513
44 6 247
41 6 230
40 9 441
38 1 321
38 9 562
37 15 281
35 3 406
21 4 274
19 10 274
14 5 525
12 5 583
9 2 500
6 1 479
6 1 462
6 2 204
4 1 87
3 2 279
2 1 300
